data/CVRPLIB/Vrp-Set-XML100/instances/XML100_1216_07.vrp
NAME : XML100_1216_07
COMMENT : Generated by Queiroga, Sadykov, Uchoa, and Vidal (2021)
TYPE : CVRP
DIMENSION : 101
EDGE_WEIGHT_TYPE : EUC_2D
CAPACITY : 45
NODE_COORD_SECTION
1    365  137 
2    553  366 
3    385  104 
4    519  197 
5    459  116 
6    497  379 
7    327  163 
8    448  187 
9    301  922 
10   452  738 
11   515  293 
12   479  124 
13   262  900 
14   333  823 
15   273  809 
16   561  258 
17   528  246 
18   469  305 
19   309  967 
20   296  954 
21   523  202 
22   155  857 
23   636  303 
24   467  76  
25   615  432 
26   221  740 
27   365  343 
28   322  415 
29   613  327 
30   539  364 
31   534  293 
32   424  435 
33   534  124 
34   629  237 
35   224  987 
36   289  889 
37   445  137 
38   587  160 
39   455  136 
40   311  903 
41   471  143 
42   512  373 
43   440  158 
44   171  927 
45   208  953 
46   550  305 
47   558  253 
48   529  229 
49   465  104 
50   312  893 
51   260  229 
52   526  358 
53   600  345 
54   412  244 
55   441  175 
56   524  310 
57   206  869 
58   398  476 
59   568  162 
60   591  114 
61   548  317 
62   588  271 
63   564  248 
64   436  181 
65   408  224 
66   122  729 
67   600  425 
68   325  902 
69   441  121 
70   260  954 
71   450  65  
72   459  142 
73   267  818 
74   733  186 
75   293  973 
76   771  371 
77   593  332 
78   613  297 
79   674  294 
80   526  368 
81   253  904 
82   482  296 
83   619  380 
84   385  157 
85   284  813 
86   529  324 
87   342  887 
88   464  393 
89   347  860 
90   584  291 
91   575  392 
92   456  137 
93   586  379 
94   440  866 
95   359  657 
96   562  323 
97   487  219 
98   518  330 
99   428  69  
100  297  912 
101  551  241 
DEMAND_SECTION
1    0   
2    1   
3    1   
4    1   
5    1   
6    1   
7    1   
8    1   
9    1   
10   1   
11   1   
12   1   
13   1   
14   1   
15   1   
16   1   
17   1   
18   1   
19   1   
20   1   
21   1   
22   1   
23   1   
24   1   
25   1   
26   1   
27   1   
28   1   
29   1   
30   1   
31   1   
32   1   
33   1   
34   1   
35   1   
36   1   
37   1   
38   1   
39   1   
40   1   
41   1   
42   1   
43   1   
44   1   
45   1   
46   1   
47   1   
48   1   
49   1   
50   1   
51   1   
52   1   
53   1   
54   1   
55   1   
56   1   
57   1   
58   1   
59   1   
60   1   
61   1   
62   1   
63   1   
64   1   
65   1   
66   1   
67   1   
68   1   
69   1   
70   1   
71   1   
72   1   
73   1   
74   1   
75   1   
76   1   
77   1   
78   1   
79   1   
80   1   
81   1   
82   1   
83   1   
84   1   
85   1   
86   1   
87   1   
88   1   
89   1   
90   1   
91   1   
92   1   
93   1   
94   1   
95   1   
96   1   
97   1   
98   1   
99   1   
100  1   
101  1   
DEPOT_SECTION
1
-1
EOF
