data/CVRPLIB/Vrp-Set-XML100/solutions/XML100_1216_07.sol
Route #1: 2 98 70 23 48 4 38 91 36 68
Route #2: 42 71 40 11 32 59 58 37 33 73 75 78 22 77 28 76 52 82 24 66 90 92 1 29 85 55 10 30 45 60 95 89 61 15 46 62 100 16 47 20 3 96 7 54 63
Route #3: 83 64 53 17 81 97 51 79 41 5 87 31 57 94 9 93 86 67 39 99 8 19 18 74 69 34 44 43 21 56 80 12 35 49 88 13 84 14 72 25 65 27 26 50 6
Cost 4683
